
Cover cuts applied:  9
Implied bound cuts applied:  3
Flow cuts applied:  20
Mixed integer rounding cuts applied:  9
Zero-half cuts applied:  8
Multi commodity flow cuts applied:  1

Root node processing (before b&c):
  Real time             =    0.04 sec. (29.03 ticks)
Parallel b&c, 4 threads:
  Real time             =    0.00 sec. (0.00 ticks)
  Sync time (average)   =    0.00 sec.
  Wait time (average)   =    0.00 sec.
                          ------------
Total (root+branch&cut) =    0.04 sec. (29.03 ticks)
Version identifier: 12.10.0.0 | 2019-11-26 | 843d4de
CPXPARAM_MIP_Interval                            10
CPXPARAM_MIP_Tolerances_AbsMIPGap                0.98999999999999999
Tried aggregator 2 times.
MIP Presolve eliminated 2470 rows and 1609 columns.
MIP Presolve modified 5 coefficients.
Aggregator did 50 substitutions.
Reduced MIP has 177 rows, 171 columns, and 610 nonzeros.
Reduced MIP has 75 binaries, 96 generals, 0 SOSs, and 0 indicators.
Presolve time = 0.00 sec. (2.39 ticks)
Probing fixed 0 vars, tightened 7 bounds.
Probing changed sense of 4 constraints.
Probing time = 0.00 sec. (0.04 ticks)
Tried aggregator 1 time.
Detecting symmetries...
MIP Presolve eliminated 7 rows and 6 columns.
MIP Presolve modified 9 coefficients.
Reduced MIP has 170 rows, 165 columns, and 585 nonzeros.
Reduced MIP has 71 binaries, 94 generals, 0 SOSs, and 0 indicators.
Presolve time = 0.00 sec. (0.41 ticks)
Probing time = 0.00 sec. (0.03 ticks)
Clique table members: 12.
MIP emphasis: balance optimality and feasibility.
MIP search method: dynamic search.
Parallel mode: deterministic, using up to 4 threads.
Root relaxation solution time = 0.00 sec. (1.82 ticks)

        Nodes                                         Cuts/
   Node  Left     Objective  IInf  Best Integer    Best Bound    ItCnt     Gap

      0     0       19.3333    59                     19.3333      234         
      0     0       18.4444    59                     Cuts: 6      252         
      0     0       18.3333    59                    Cuts: 71      310         
      0     0       18.0000    59                    Cuts: 41      342         
*     0+    0                           18.0000       18.0000             0.00%
      0     0        cutoff             18.0000       18.0000      342    0.00%
Elapsed time = 0.05 sec. (16.05 ticks, tree = 0.01 MB, solutions = 1)
the number of Nodes = 0
